Al  H  N  O 
 1.0000000000000000
    13.9732699999999994    0.0000000000000000    0.0000000000000000
     0.0000000000000000    9.4630899999999993    0.0000000000000000
    -1.1638330385071622    0.0000000000000000   10.7535035383115574
 Al  H   N   O  
   4  72  12  72
Cartesian
  0.0000000000000000  0.0000000000000000  0.0000000000000000
 -0.5819165192535811  4.7315449999999997  5.3767517691557787
  6.4047184807464186  0.0000000000000000  5.3767517691557787
  6.9866349999999997  4.7315449999999997  0.0000000000000000
 10.8243207025633499  1.4831974111499999 10.0068985411501252
  1.9851162589294857  7.9798925888499985  0.7466049971614327
  1.4031997396759046  6.2147424111500005  6.1233567663172117
 11.4062372218169319  3.2483475888499997  4.6301467719943457
 12.4889935502482654  1.9387789530199999  0.7712412737677049
  0.3204434112445720  7.5243110469799994  9.9822622645438521
  0.9023599304981531  6.6703239530199996  4.6055104953880734
 11.9070770309946852  2.7927660469799998  6.1479930429234839
 12.3664432054227280  8.6554720470399999  8.2684011311183720
  0.4429937560701099  0.8076179529599997  2.4851024071931858
 -0.1389227631834713  3.9239270470399989  7.8618541763489649
 12.9483597246763100  5.5391629529599991  2.8916493619625916
 11.2260855685209116  8.0662148958299991  9.2764775668138508
  1.5833513929719258  1.3968751041699998  1.4770259714977068
  1.0014348737183447  3.3346698958299998  6.8537777406534852
 11.8080020877744936  6.1284201041699999  3.8997257976580708
 11.9237874697994535  8.7133577685699990  1.3889117635047823
  0.8856494916933841  0.7497322314300005  9.3645917748067742
  1.4675660109469653  3.9818127685700002  3.9878400056509959
 11.3418709505458715  5.4812772314300000  6.7656635326605610
 12.9908244321022472  7.4343738396200001  1.2378895598127349
 -0.1813874706094100  2.0287161603799997  9.5156139784988234
  0.4005290486441712  2.7028288396199991  4.1388622093430438
 12.4089079128486652  6.7602611603799989  6.6146413289685135
  4.3814351040666857  1.4056663147799999  4.6249098157711881
  8.4280018574261515  8.0574236852199999  6.1285937225403693
  9.0099183766797317  6.1372113147799991  0.7518419533845906
  3.7995185848131046  3.3258786852199997 10.0016615849269659
  4.7491699656694344  1.8281459678299998  6.1798986879216535
  8.0602669958234028  7.6349440321699991  4.5736048503899038
  7.4783504765698217  6.5596909678299999  9.9503566195456834
  5.3310864849230155  2.9033990321699998  0.8031469187658747
  5.7967396124218045  8.5770324940300000  2.9468040816105927
  7.0126973490710327  0.8860575059699997  7.8066994567009642
  7.5946138683246138  3.8454874940299990  2.4299476875451860
  5.2148230931682233  5.6176025059699990  8.3235558507663718
  4.6315669825155723  8.2421810543799996  4.0440808291563659
  8.1778699789772666  1.2209089456199995  6.7094227091551915
  8.7597864982308469  3.5106360543800013  1.3326709399994132
  4.0496504632619912  5.9524539456199994  9.4208325983121455
  4.8536279818306438  8.7057021287599987  7.3722794207602549
  7.9558089796621925  0.7573878712400000  3.3812241175513029
  7.3738924604086113  3.9741571287599999  8.7579758867070812
  5.4355445010842249  5.4889328712399994  1.9955276516044758
  5.4885648916276324  7.4126371218899996  6.6227494706364007
  7.3208720698652048  2.0504528781099993  4.1307540676751566
  6.7389555506116237  2.6810921218899990  9.5075058368309353
  6.0704814108812135  6.7819978781099994  1.2459977014806218
 12.8113494773461589  5.3551437048199997  0.6604049127983277
 -0.0019125158533213  4.1079462951799997 10.0930986255132300
  0.5800040034002598  0.6235987048200000  4.7163468563574513
 12.2294329580925769  8.8394912951799984  6.0371566819541069
  0.3237645611007367  5.7184790453699996  1.1226980299103415
 12.4856724003921009  3.7446109546300002  9.6308055084012150
 13.0675889196456811  0.9869340453699996  4.2540537392454372
 -0.2581519581528445  8.4761559546300003  6.4994497990661202
  4.9048433807065237  5.3255242331200003  6.2131055068479606
  7.9045935807863117  4.1375657668799990  4.5403980314635968
  7.3226770615327315  0.5939792331200014  9.9171498006193755
  5.4867598999601057  8.8691107668799987  0.8363537376921806
  6.4405327603527986  5.3391321565399998  6.6922386105009695
  6.3689042011400385  4.1239578434599995  4.0612649278105879
  5.7869876818864574  0.6075871565399998  9.4380166969663666
  7.0224492796063798  8.8555028434600001  1.3154868413451908
  2.3886147302219705  4.5917656976099996  1.2307062194491427
 10.4208222312708667  4.8713243023899997  9.5227973188624144
 11.0027387505244469  9.3233106976099993  4.1460455497066366
  1.8066982109683893  0.1397793023899998  6.6074579886049207
  2.5689400306896788  5.6248417698199997  0.0576172719582733
 10.2404969308031593  3.8382482301800001 10.6958862663532841
 10.8224134500567395  0.8932967698199997  5.3191344971975054
  1.9870235114360977  8.5697932301800002  5.4343690411140519
 10.9483033266183742  2.9512444152099997  2.2415140450433526
  1.8611336348744629  6.5118455847899996  8.5119894932682048
  2.4430501541280440  7.6827894152099994  3.1352377241124261
 10.3663868073647922  1.7803005847899998  7.6182658141991313
  3.7047632398417085  2.0168683716999998  2.3531246582674883
  9.1046737216511282  7.4462216282999991  8.4003788800440695
  9.6865902409047102  6.7484133716999999  3.0236271108882904
  3.1228467205881274  2.7146766282999999  7.7298764274232674
  3.8457854685632151  4.8104009289700000  4.0559096830485082
  8.9636514929296229  4.6526890710299993  6.6975938552630501
  9.5455680121832049  0.0788559289699993  1.3208420861072705
  3.2638689493096340  9.3842340710299990  9.4326614522042860
 11.5273567863398618  1.3920583913600000 10.7113282974342994
  1.2820801751529751  8.0710316086399985  0.0421752408772577
  0.7001636558993940  6.1236033913599996  5.4189270100330367
 12.1092733055934438  3.3394866086399997  5.3345765282785207
 12.0282458063188500  8.6703290983399999  9.2184086477069673
  0.7811911551739865  0.7927609016600001  1.5350948906045900
  0.1992746359204054  3.9387840983399998  6.9118466597603687
 12.6101623255724320  5.5243059016600000  3.8416568785511900
 12.8385382660087082  8.4303167466699982  1.1201924635859148
 -0.0291013045158710  1.0327732533300003  9.6333110747256434
  0.5528152147377101  3.6987717466699994  4.2565593055698638
 12.2566217467551262  5.7643182533299999  6.4969442327416935
  5.0772165220475474  1.3700093916600000  5.3462763401282034
  7.7322204394452907  8.0930806083399993  5.4072271981833540
  8.3141369586988709  6.1015543916599988  0.0304754290275750
  4.4953000027939662  3.3615356083399996 10.7230281092839821
  5.5656028402311559  8.5890600814199995  3.9338896783992872
  7.2438341212616804  0.8740299185800005  6.8196138599122706
  7.8257506405152615  3.8575150814199990  1.4428620907564917
  4.9836863209775748  5.6055749185800003  9.3106414475550654
  5.3021159133156468  8.4023722418999984  6.5375709691094350
  7.5073210481771904  1.0607177581000002  4.2159325692021223
  6.9254045289236092  3.6708272418999996  9.5926843383579001
  5.8840324325692279  5.7922627580999997  1.1608191999536552
 13.3395948942071580  5.8676835853999991  1.3406823001354551
 -0.5301579327143200  3.5954064146000002  9.4128212381761021
  0.0517585865392611  1.1361385854000003  4.0360694690203234
 12.7576783749535760  8.3269514145999999  6.7174340692912331
  5.5691886295408315  5.7969469876500002  6.7933215437610990
  7.2402483319520066  3.6661430123499992  3.9601819945504584
  6.6583318126984254  1.0654019876500014  9.3369337637062380
  6.1511051487944126  8.3976880123499988  1.4165697746053203
  1.8983112731599541  5.0658191911600001  0.5275346230789502
 10.9111256883328824  4.3972708088399992 10.2259689152326079
 11.4930422075864644  0.3342741911600012  4.8492171460768283
  1.3163947539063729  9.1288158088399989  5.9042863922347291
  9.7416711289318805  1.6066244940200001  8.6945087088239674
  3.0677658325609558  7.8564655059799993  2.0589948294875904
  2.4858493133073747  6.3381694940199997  7.4357465986433686
 10.3235876481854625  3.1249205059800000  3.3177569396681874
 12.1856925255656350  2.6998479662699997  2.2252439941898872
  0.6237444359272024  6.7632420337300001  8.5282595441216706
  1.2056609551807835  7.4313929662699989  3.1515077749658915
 11.6037760063120530  2.0316970337300000  7.6019957633456663
  3.0718872054175952  7.7576519201999989  4.2563119749884830
  9.7375497560752411  1.7054380798000004  6.4971915633230743
 10.3194662753288231  3.0261069201999993  1.1204397941672959
  2.4899706861640141  6.4369830798000001  9.6330637441442608
  2.6478902945047200  3.2465496017500000  8.7777730867211137
 10.1615466669881158  6.2165403982499994  1.9757304515904444
  9.5796301477345356  7.9780946017499996  7.3524822207462233
  3.2298068137583011  1.4849953982499997  3.4010213175653341
  4.9457503487190557  2.2632966983899996  2.2712044683126309
  7.8636866127737823  7.1997933016099989  8.4822990699989269
  8.4456031320273635  6.9948416983900001  3.1055473008431478
  4.3638338294654746  2.4682483016099996  7.6479562374684091
  9.8730892510182926  7.1501310052899987  9.3676887838258089
  2.9363477104745437  2.3129589947100002  1.3858147544857482
  2.3544311912209626  2.4185860052899981  6.7625665236415271
 10.4550057702718746  7.0445039947100003  3.9909370146700303
  4.4171698839847329  9.0508494103299988  8.9922409612892000
  8.3922670775081034  0.4122405896700002  1.7612625770223580
  7.8103505582545223  4.3193044103299991  7.1380143461781369
  4.9990864032383140  5.1437855896700002  3.6154891921334218
  3.6741862458931465  4.6308671854899996  5.2869062470931860
  9.1352507155996925  4.8322228145100006  5.4665972912183713
  9.7171672348532727  9.3624121854899993  0.0898455220625931
  3.0922697266395653  0.1006778145100001 10.6636580162489647
  2.8809113052310233  4.6702336398899993  3.2489022565123791
  9.9285256562618134  4.7928563601100000  7.5046012817991787
 10.5104421755153954  9.4017786398899990  2.1278495126433996
  2.2989947859774422  0.0613113601100001  8.6256540256681582
